NAME: B-n31-k5-C11-V2
TYPE: SoftCluVRP
DIMENSION:  31 
VEHICLES:  2 
GVRP_SETS:  11 
CAPACITY:  100 
EDGE_WEIGHT_TYPE: EUC_2D
NODE_COORD_SECTION 
1 17.000000 76.000000
2 24.000000 6.000000
3 96.000000 29.000000
4 14.000000 19.000000
5 14.000000 32.000000
6 0.000000 34.000000
7 16.000000 22.000000
8 20.000000 26.000000
9 22.000000 28.000000
10 17.000000 23.000000
11 98.000000 30.000000
12 30.000000 8.000000
13 23.000000 27.000000
14 19.000000 23.000000
15 34.000000 7.000000
16 31.000000 7.000000
17 0.000000 37.000000
18 19.000000 23.000000
19 0.000000 36.000000
20 26.000000 7.000000
21 98.000000 32.000000
22 5.000000 40.000000
23 17.000000 26.000000
24 21.000000 26.000000
25 28.000000 8.000000
26 1.000000 35.000000
27 27.000000 28.000000
28 99.000000 30.000000
29 26.000000 28.000000
30 17.000000 29.000000
31 20.000000 26.000000
GVRP_SET_SECTION 
 1 28  3  11  21 -1
 2  6  17  19  26 -1
 3  15 -1
 4  9  8  13  24  31 -1
 5  4 -1
 6  2  20 -1
 7  5  30 -1
 8  22 -1
 9  14  7  10  18  23 -1
 10  27  29 -1
 11  12  16  25 -1
 DEMAND_SECTION
 1 9 
 2 13 
 3 10 
 4 17 
 5 13 
 6 15 
 7 15 
 8 2 
 9 14 
 10 16 
 11 14 
EOF
